p cnf 7230 17
-2792 -3380 -3772 0
-2790 -3378 -3770 0
-2786 -3376 -3768 0
2792 -3773 0
2790 -3771 0
2786 -3769 0
3772 3773 0
3770 3771 0
3768 3769 0
3380 -3773 0
3378 -3771 0
3376 -3769 0
-2794 -3382 3775 0
3766 3767 0
-3766 -3767 0
3382 -3775 0
2794 -3775 0
